job_count = 10 ;
duration = [|11, 11, 18|10, 19, 13|15, 2, 8|26, 23, 3|7, 7, 15|21, 14, 17|7, 10, 14|5, 14, 2|21, 21, 18|22, 8, 16|] ;
machine_count = 3 ;
cost = [|13, 20, 40|11, 25, 47|20, 38, 30|33, 32, 44|36, 36, 42|39, 41, 44|30, 34, 45|36, 37, 34|37, 30, 33|31, 22, 36|] ;
deadline = [23, 11, 17, 20, 20, 16, 24, 31, 31, 32] ;
release = [0, 0, 0, 0, 0, 0, 0, 0, 0, 0] ;
resource = [|3, 3, 3|3, 3, 3|5, 5, 5|9, 9, 9|1, 1, 1|7, 7, 7|6, 6, 6|7, 7, 7|4, 4, 4|4, 4, 4|] ;
capacities = [10, 10, 10] ;
